Data path: /scratch/opt/lxu/CFLG/benchmarks/tree_A
Instance: treeA.200.10
Result path: /scratch/opt/lxu/CFLG/results/tree_A
Solver: Gurobi
Time limit: 7200
Formulation: LEFPAI
Cover: Large
julia --project=. src/main.jl /scratch/opt/lxu/CFLG/benchmarks/tree_A treeA.200.10 /scratch/opt/lxu/CFLG/results/tree_A Gurobi 7200 LEFPAI Large
The latest version of Julia in the `release` channel is 1.11.5+0.x64.linux.gnu. You currently have `1.11.4+0.x64.linux.gnu` installed. Run:

  juliaup update

in your terminal shell to install Julia 1.11.5+0.x64.linux.gnu and update the `release` channel to that version.
/scratch/opt/lxu/CFLG/benchmarks/tree_A Gurobi 7200.0 /scratch/opt/lxu/CFLG/results/tree_A treeA.200.10 LEFPAI Large
/scratch/opt/lxu/CFLG/benchmarks/tree_A/treeA.200.10

 read graph
data loaded

problem_graph/original graph: node: 200/200 edge: 209/209 dlt: 3.007579533011168 break_avg_len: 1.503789766505584 break_max_len: 1.984402562727856Vbar/V, Ebar/E(71, 200, 80, 209)
(1, 117)(1, 185)(3, 142)(3, 175)(8, 45)(8, 24)(12, 18)(12, 170)(12, 45)(18, 132)(19, 152)(19, 156)(21, 97)(21, 60)(23, 152)(23, 114)(24, 27)(24, 194)(26, 60)(26, 98)(27, 31)(27, 87)(28, 199)(28, 161)(29, 88)(29, 76)(30, 194)(30, 175)(31, 170)(32, 115)(32, 97)(34, 190)(34, 105)(39, 109)(39, 115)(40, 51)(40, 96)(41, 112)(41, 117)(42, 63)(42, 119)(51, 156)(63, 166)(65, 136)(65, 142)(68, 185)(68, 129)(69, 170)(69, 193)(69, 197)(74, 115)(74, 179)(76, 112)(77, 161)(77, 164)(87, 104)(88, 165)(96, 196)(98, 105)(98, 119)(98, 153)(104, 161)(109, 190)(109, 153)(114, 138)(120, 153)(120, 136)(129, 196)(130, 164)(130, 156)(132, 144)(138, 144)(138, 175)(138, 193)(144, 179)(165, 195)(166, 199)(185, 197)(195, 200)(196, 200)(Dict(20 => 1.0, 58 => 0.0, 28 => 0.0, 37 => 4.0, 23 => 3.0, 19 => 1.0, 22 => 1.0, 47 => 1.0, 41 => 0.0, 49 => 1.0, 11 => 1.0, 36 => 1.0, 44 => 0.0, 9 => 1.0, 45 => 2.0, 67 => 0.0, 69 => 1.0, 31 => 0.0, 43 => 0.0, 3 => 0.0, 46 => 0.0, 71 => 0.0, 57 => 0.0, 48 => 1.0, 34 => 0.0, 4 => 0.0, 70 => 4.0, 21 => 0.0, 54 => 1.0, 18 => 1.0, 26 => 0.0, 42 => 0.0), [4, 9, 11, 18, 19, 20, 26, 34, 36, 41, 42, 44, 45, 47, 49, 57, 67, 69, 3, 21, 22, 23, 28, 31, 37, 43, 46, 48, 54, 58, 70, 71], 103, 112)Set parameter TokenServer to value "solice01.zib.de"
Set parameter Threads to value 1
Set parameter OutputFlag to value 1
Gurobi Optimizer version 12.0.1 build v12.0.1rc0 (linux64 - "Debian GNU/Linux 12 (bookworm)")

CPU model: Intel(R) Xeon(R) Gold 5122 CPU @ 3.60GHz, instruction set [SSE2|AVX|AVX2|AVX512]
Thread count: 8 physical cores, 16 logical processors, using up to 1 threads

Non-default parameters:
Threads  1

Optimize a model with 215 rows, 336 columns and 560 nonzeros
Model fingerprint: 0x9897acdd
Coefficient statistics:
  Matrix range     [1e+00, 1e+00]
  Objective range  [1e+00, 1e+00]
  Bounds range     [1e+00, 1e+00]
  RHS range        [1e+00, 1e+00]
Presolve removed 215 rows and 336 columns
Presolve time: 0.00s
Presolve: All rows and columns removed
Iteration    Objective       Primal Inf.    Dual Inf.      Time
       0    3.2000000e+01   0.000000e+00   0.000000e+00      0s

Solved in 0 iterations and 0.00 seconds (0.00 work units)
Optimal objective  3.200000000e+01

User-callback calls 35, time in user-callback 0.01 sec
elapsed CPU time: 1.804258 seconds
Set parameter TokenServer to value "solice01.zib.de"
Set parameter Threads to value 1
Set parameter OutputFlag to value 1
Set parameter MIPGap to value 0.0001
Set parameter MIPGapAbs to value 0.999998
Set parameter TimeLimit to value 7198.195742

 more cuts: false 3.007579533011168 false
is_attach:trueformulation:LEFPAI0 112 0

 model loaded

Gurobi Optimizer version 12.0.1 build v12.0.1rc0 (linux64 - "Debian GNU/Linux 12 (bookworm)")

CPU model: Intel(R) Xeon(R) Gold 5122 CPU @ 3.60GHz, instruction set [SSE2|AVX|AVX2|AVX512]
Thread count: 8 physical cores, 16 logical processors, using up to 1 threads

Non-default parameters:
TimeLimit  7198.195742
MIPGapAbs  0.999998
Threads  1

Optimize a model with 1853 rows, 1777 columns and 4857 nonzeros
Model fingerprint: 0xa72453d3
Model has 1123 simple general constraints
  1123 INDICATOR
Variable types: 327 continuous, 1450 integer (1450 binary)
Coefficient statistics:
  Matrix range     [7e-02, 3e+00]
  Objective range  [1e+00, 1e+00]
  Bounds range     [7e-02, 3e+00]
  RHS range        [1e-06, 3e+00]
  GenCon rhs range [1e-03, 3e+00]
  GenCon coe range [1e+00, 1e+00]
Presolve removed 574 rows and 1015 columns
Presolve time: 0.06s
Presolved: 1279 rows, 762 columns, 5961 nonzeros
Variable types: 142 continuous, 620 integer (620 binary)
Found heuristic solution: objective 106.0000000
Found heuristic solution: objective 105.0000000
Found heuristic solution: objective 84.0000000

Root relaxation: objective 4.462549e+01, 872 iterations, 0.01 seconds (0.01 work units)

    Nodes    |    Current Node    |     Objective Bounds      |     Work
 Expl Unexpl |  Obj  Depth IntInf | Incumbent    BestBd   Gap | It/Node Time

     0     0   44.62549    0  184   84.00000   44.62549  46.9%     -    0s
H    0     0                      83.0000000   44.62549  46.2%     -    0s
H    0     0                      65.0000000   44.62549  31.3%     -    0s
H    0     0                      59.0000000   44.62549  24.4%     -    0s
H    0     0                      58.0000000   44.62549  23.1%     -    0s
     0     0   46.14710    0  211   58.00000   46.14710  20.4%     -    0s
     0     0   46.14865    0  211   58.00000   46.14865  20.4%     -    0s
H    0     0                      57.0000000   46.20368  18.9%     -    0s
     0     0   46.20368    0  206   57.00000   46.20368  18.9%     -    0s
     0     0   46.81189    0  211   57.00000   46.81189  17.9%     -    0s
     0     0   46.99734    0  204   57.00000   46.99734  17.5%     -    0s
     0     0   46.99836    0  204   57.00000   46.99836  17.5%     -    0s
     0     0   46.99836    0  204   57.00000   46.99836  17.5%     -    0s
     0     0   47.54576    0  189   57.00000   47.54576  16.6%     -    0s
H    0     0                      56.0000000   47.54576  15.1%     -    0s
     0     0   47.56170    0  222   56.00000   47.56170  15.1%     -    0s
     0     0   47.56170    0  222   56.00000   47.56170  15.1%     -    0s
     0     0   47.97500    0  165   56.00000   47.97500  14.3%     -    0s
H    0     0                      54.0000000   48.03750  11.0%     -    0s
     0     0   48.03750    0  166   54.00000   48.03750  11.0%     -    0s
     0     0   48.03750    0  188   54.00000   48.03750  11.0%     -    0s
     0     0   48.03750    0  188   54.00000   48.03750  11.0%     -    0s
     0     0   48.03750    0  122   54.00000   48.03750  11.0%     -    0s
     0     0   48.03750    0  170   54.00000   48.03750  11.0%     -    0s
     0     0   48.03750    0  138   54.00000   48.03750  11.0%     -    0s
     0     0   48.11020    0  159   54.00000   48.11020  10.9%     -    0s
     0     0   48.11020    0  178   54.00000   48.11020  10.9%     -    0s
     0     0   48.11020    0  181   54.00000   48.11020  10.9%     -    0s
     0     0   48.11020    0  184   54.00000   48.11020  10.9%     -    0s
     0     0   48.11020    0  148   54.00000   48.11020  10.9%     -    0s
H    0     0                      53.0000000   48.11667  9.21%     -    0s
     0     2   48.15556    0  148   53.00000   48.15556  9.14%     -    0s
H   26    24                      52.0000000   48.18889  7.33%  55.5    0s
H  105    29                      51.0000000   48.26667  5.36%  31.8    0s

Cutting planes:
  Learned: 38
  Gomory: 6
  Cover: 137
  Implied bound: 70
  Clique: 1
  MIR: 126
  StrongCG: 11
  Flow cover: 86
  GUB cover: 8
  Inf proof: 8
  Zero half: 17
  Network: 1
  RLT: 43
  Relax-and-lift: 13
  BQP: 4
  PSD: 3

Explored 4173 nodes (102441 simplex iterations) in 4.83 seconds (3.33 work units)
Thread count was 1 (of 16 available processors)

Solution count 10: 51 52 53 ... 83

Optimal solution found (tolerance 1.00e-04)
Best objective 5.100000000000e+01, best bound 5.100000000000e+01, gap 0.0000%

User-callback calls 11713, time in user-callback 0.01 sec

 sepatime0 0 0
51.0Stat(MathOptInterface.OPTIMAL, 51.0, 51.0, 0.0, 0.0, 1.804258, 4.834367990493774, 4173, Main.CFLG.LEFPAI, "", #undef)
